certificates/rado_a10_c164_N29.cnf
c Rad2 upper bound instance: x1 + 10*x2 - x3 = 164, interval [1,29]
p cnf 29 168
1 7 17 0
-1 -7 -17 0
1 17 18 0
-1 -17 -18 0
1 19 27 0
-1 -19 -27 0
2 8 17 0
-2 -8 -17 0
2 18 0
-2 -18 0
2 19 28 0
-2 -19 -28 0
3 9 17 0
-3 -9 -17 0
3 18 19 0
-3 -18 -19 0
3 19 29 0
-3 -19 -29 0
4 10 17 0
-4 -10 -17 0
4 18 20 0
-4 -18 -20 0
1 5 16 0
-1 -5 -16 0
5 11 17 0
-5 -11 -17 0
5 18 21 0
-5 -18 -21 0
2 6 16 0
-2 -6 -16 0
6 12 17 0
-6 -12 -17 0
6 18 22 0
-6 -18 -22 0
3 7 16 0
-3 -7 -16 0
7 13 17 0
-7 -13 -17 0
7 18 23 0
-7 -18 -23 0
4 8 16 0
-4 -8 -16 0
8 14 17 0
-8 -14 -17 0
8 18 24 0
-8 -18 -24 0
5 9 16 0
-5 -9 -16 0
9 15 17 0
-9 -15 -17 0
9 18 25 0
-9 -18 -25 0
6 10 16 0
-6 -10 -16 0
10 16 17 0
-10 -16 -17 0
10 18 26 0
-10 -18 -26 0
7 11 16 0
-7 -11 -16 0
11 17 0
-11 -17 0
11 18 27 0
-11 -18 -27 0
8 12 16 0
-8 -12 -16 0
12 17 18 0
-12 -17 -18 0
12 18 28 0
-12 -18 -28 0
9 13 16 0
-9 -13 -16 0
13 17 19 0
-13 -17 -19 0
13 18 29 0
-13 -18 -29 0
10 14 16 0
-10 -14 -16 0
14 17 20 0
-14 -17 -20 0
1 15 0
-1 -15 0
11 15 16 0
-11 -15 -16 0
15 17 21 0
-15 -17 -21 0
2 15 16 0
-2 -15 -16 0
12 16 0
-12 -16 0
16 17 22 0
-16 -17 -22 0
3 15 17 0
-3 -15 -17 0
13 16 17 0
-13 -16 -17 0
17 23 0
-17 -23 0
4 15 18 0
-4 -15 -18 0
14 16 18 0
-14 -16 -18 0
17 18 24 0
-17 -18 -24 0
5 15 19 0
-5 -15 -19 0
15 16 19 0
-15 -16 -19 0
17 19 25 0
-17 -19 -25 0
6 15 20 0
-6 -15 -20 0
16 20 0
-16 -20 0
17 20 26 0
-17 -20 -26 0
7 15 21 0
-7 -15 -21 0
16 17 21 0
-16 -17 -21 0
17 21 27 0
-17 -21 -27 0
8 15 22 0
-8 -15 -22 0
16 18 22 0
-16 -18 -22 0
17 22 28 0
-17 -22 -28 0
9 15 23 0
-9 -15 -23 0
16 19 23 0
-16 -19 -23 0
17 23 29 0
-17 -23 -29 0
10 15 24 0
-10 -15 -24 0
16 20 24 0
-16 -20 -24 0
1 14 25 0
-1 -14 -25 0
11 15 25 0
-11 -15 -25 0
16 21 25 0
-16 -21 -25 0
2 14 26 0
-2 -14 -26 0
12 15 26 0
-12 -15 -26 0
16 22 26 0
-16 -22 -26 0
3 14 27 0
-3 -14 -27 0
13 15 27 0
-13 -15 -27 0
16 23 27 0
-16 -23 -27 0
4 14 28 0
-4 -14 -28 0
14 15 28 0
-14 -15 -28 0
16 24 28 0
-16 -24 -28 0
5 14 29 0
-5 -14 -29 0
15 29 0
-15 -29 0
16 25 29 0
-16 -25 -29 0
