certificates/rado_a10_c164_N29.drat
19 15 0
-29 0
15 0
-1 0
-19 0
27 0
3 0
-13 0
-17 0
-14 0
7 0
0
